p max 10 40
n 1 s
n 10 t

a 1 2 20
a 1 3 10
a 1 4 18
a 1 6 14
a 1 7 8
a 1 9 5
a 2 3 7
a 2 4 9
a 2 5 7
a 2 6 2
a 2 7 10
a 2 8 4
a 3 4 4
a 3 5 6
a 3 6 6
a 3 8 1
a 4 5 4
a 4 6 7
a 4 8 4
a 4 9 12
a 4 10 2
a 5 7 9
a 5 8 3
a 5 9 6
a 5 10 4
a 6 5 6
a 6 7 11
a 6 8 10
a 6 10 3
a 7 3 4
a 7 4 6
a 7 10 8
a 8 7 2
a 8 10 4
a 9 2 5
a 9 3 9
a 9 6 5
a 9 7 6
a 9 8 8
a 9 10 3